NAME : rc202.2.8537075.tour
COMMENT : Length = 8537075
COMMENT : Found by LKH [Keld Helsgaun] Tue Nov  7 19:52:17 2017
TYPE : TOUR
DIMENSION : 28
TOUR_SECTION
1
15
4
3
9
12
13
10
11
14
19
22
25
27
16
23
24
5
6
17
26
21
7
8
18
2
20
28
-1
EOF
